\ENCODING=ISO-8859-1
\Problem name: IloCplex

Minimize
 obj1: - X(1) - X(2) - X(3) - X(4) - X(5) - X(6) - X(7) - X(8) - X(9) - X(10)
       - X(11) - X(12) - X(13) - X(14) - X(15) - X(16) - X(17) - X(18) - X(19)
       - X(20) - X(21) - X(22) - X(23) - X(24) - X(25) + 1
Subject To
 c1:  95 X(1) + 94 X(2) + 93 X(3) + 92 X(4) + 87 X(5) + 81 X(6) + 81 X(7)
      + 79 X(8) + 78 X(9) + 76 X(10) + 75 X(11) + 72 X(12) + 72 X(13)
      + 71 X(14) + 70 X(15) + 65 X(16) + 62 X(17) + 61 X(18) + 60 X(19)
      + 55 X(20) + 54 X(21) + 54 X(22) + 51 X(23) + 49 X(24) + 46 X(25)
      + 45 X(26) + 38 X(27) + 38 X(28) + 37 X(29) + 36 X(30) + 36 X(31)
      + 36 X(32) + 32 X(33) + 31 X(34) + 28 X(35) + 27 X(36) + 26 X(37)
      + 25 X(38) + 24 X(39) + 24 X(40) + 21 X(41) + 20 X(42) + 20 X(43)
      + 17 X(44) + 14 X(45) + 10 X(46) + 9 X(47) + 7 X(48) + 7 X(49) + 3 X(50)
      <= 100
 c2:  X(16) - X(33)  = 0
 c3:  X(4) - X(48)  = 0
 c4:  X(15) - X(36)  = 0
 c5:  X(11) - X(38)  = 0
 c6:  X(22) - X(26)  = 0
 c7:  X(5) - X(50)  = 0
 c8:  X(22) + X(25) <= 1
 c9:  X(6) + X(44) <= 1
 c10: X(5) + X(46) <= 1
 c11: X(23) + X(24) <= 1
 c12: X(21) + X(25) <= 1
 c13: X(23) + X(25) <= 1
 c14: X(24) + X(25) <= 1
Bounds
 0 <= X(1) <= 1
 0 <= X(2) <= 1
 0 <= X(3) <= 1
 0 <= X(4) <= 1
 0 <= X(5) <= 1
 0 <= X(6) <= 1
 0 <= X(7) <= 1
 0 <= X(8) <= 1
 0 <= X(9) <= 1
 0 <= X(10) <= 1
 0 <= X(11) <= 1
 0 <= X(12) <= 1
 0 <= X(13) <= 1
 0 <= X(14) <= 1
 0 <= X(15) <= 1
 0 <= X(16) <= 1
 0 <= X(17) <= 1
 0 <= X(18) <= 1
 0 <= X(19) <= 1
 0 <= X(20) <= 1
 0 <= X(21) <= 1
 0 <= X(22) <= 1
 0 <= X(23) <= 1
 0 <= X(24) <= 1
 0 <= X(25) <= 1
 0 <= X(26) <= 1
 0 <= X(27) <= 1
 0 <= X(28) <= 1
 0 <= X(29) <= 1
 0 <= X(30) <= 1
 0 <= X(31) <= 1
 0 <= X(32) <= 1
 0 <= X(33) <= 1
 0 <= X(34) <= 1
 0 <= X(35) <= 1
 0 <= X(36) <= 1
 0 <= X(37) <= 1
 0 <= X(38) <= 1
 0 <= X(39) <= 1
 0 <= X(40) <= 1
 0 <= X(41) <= 1
 0 <= X(42) <= 1
 0 <= X(43) <= 1
 0 <= X(44) <= 1
 0 <= X(45) <= 1
 0 <= X(46) <= 1
 0 <= X(47) <= 1
 0 <= X(48) <= 1
 0 <= X(49) <= 1
 0 <= X(50) <= 1
Binaries
 X(1)  X(2)  X(3)  X(4)  X(5)  X(6)  X(7)  X(8)  X(9)  X(10)  X(11)  X(12) 
 X(13)  X(14)  X(15)  X(16)  X(17)  X(18)  X(19)  X(20)  X(21)  X(22)  X(23) 
 X(24)  X(25)  X(26)  X(27)  X(28)  X(29)  X(30)  X(31)  X(32)  X(33)  X(34) 
 X(35)  X(36)  X(37)  X(38)  X(39)  X(40)  X(41)  X(42)  X(43)  X(44)  X(45) 
 X(46)  X(47)  X(48)  X(49)  X(50) 
End
